c --- [ banner ] -------------------------------------------------------------
c 
c CaDiCaL Radically Simplified CDCL SAT Solver
c Copyright (c) 2016-2021 A. Biere, M. Fleury, N. Froleyks
c 
c Version 1.5.2 ca9bff05c11bde5eae4912f9932871d1527e61d8
c g++ (GCC) 9.3.0 -Wall -Wextra -O3 -DNDEBUG
c Thu Jul 28 23:42:48 EDT 2022 Linux gra-login3 3.10.0-1160.66.1.el7.x86_64 x86_64
c 
c --- [ limit ] --------------------------------------------------------------
c 
c setting conflict limit to 200000 conflicts (due to '200000')
c 
c --- [ parsing input ] ------------------------------------------------------
c 
c reading DIMACS file from '23.cubes541.adj'
c opening file to read '23.cubes541.adj'
c found 'p cnf 5320 914896' header
c parsed 914896 clauses in 6.99 seconds process time
c closing file '23.cubes541.adj'
c after reading 637830015 bytes 608.3 MB
c 
c --- [ options ] ------------------------------------------------------------
c 
c all options are set to their default value
c 
c --- [ solving ] ------------------------------------------------------------
c 
c time measured in process time since initialization
c 
c  seconds   reductions  redundant  irredundant
c          MB    restarts       trail      variables
c           level   conflicts       glue        remaining
c 
c *  6.99 630  0 0   0    0    0  0% 0 914847 2104 40%
c {  7.39 655  0 0   0    0    0  0% 0 914847 2104 40%
c i  7.54 662 1067 0   0    7    6 33% 1 914847 2098 39%
c i  8.03 690 643 0   3   27   25 28% 3 914847 2075 39%
c i  8.22 694 651 0   3   29   26 30% 3 914847 2043 38%
c i 10.49 715 123 0  37  221  173 25% 21 914847 2038 38%
c i 10.50 715 121 0  37  225  176 25% 20 914847 2037 38%
c i 10.50 715 120 0  37  227  177 25% 20 914847 2036 38%
c i 10.50 715 120 0  37  228  177 25% 20 914847 2035 38%
c i 10.62 715 114 0  37  247  195 25% 20 914847 2034 38%
c i 10.83 716 110 0  41  273  220 25% 22 914847 2033 38%
c i 11.08 717 108 0  47  293  237 25% 23 914847 2032 38%
c - 12.60 646 108 1  50  302  243 25% 24 203026 2032 38%
c i 13.08 631 90 1  64  417  313 24% 24 203026 2031 38%
c i 13.12 631 90 1  67  430  323 24% 25 203026 2030 38%
c i 13.13 631 89 1  69  437  327 24% 24 203026 2029 38%
c i 13.13 631 89 1  69  438  327 24% 24 203026 2028 38%
c i 13.13 631 88 1  69  439  327 24% 24 203026 2027 38%
c i 13.17 631 87 1  71  454  339 25% 25 203026 2026 38%
c i 13.19 631 85 1  75  467  349 25% 24 203026 2025 38%
c 
c  seconds   reductions  redundant   irredundant
c          MB    restarts       trail       variables
c           level   conflicts       glue         remaining
c 
c i 13.26 631 84 1  79  484  363 25% 25 203026 2024 38%
c i 13.28 631 84 1  80  486  364 25% 25 203026 2023 38%
c i 13.37 631 84 1  81  499  375 25% 25 203026 2022 38%
c i 13.46 631 85 1  83  515  386 25% 26 203026 2019 38%
c i 13.99 631 83 1  96  578  439 25% 26 203026 2018 38%
c i 14.05 631 83 1 100  589  449 25% 27 203026 2017 38%
c i 14.07 631 83 1 101  598  455 25% 27 203026 2016 38%
c i 14.14 631 81 1 107  626  478 25% 27 203026 2015 38%
c i 14.14 631 80 1 108  627  478 25% 27 203026 2014 38%
c i 14.16 631 80 1 108  629  479 25% 27 203026 2013 38%
c i 14.42 632 83 1 117  682  524 25% 28 203026 2012 38%
c i 14.67 632 82 1 128  723  557 25% 28 203026 2011 38%
c i 14.67 632 82 1 129  724  557 25% 28 203026 2010 38%
c i 14.67 632 82 1 129  728  560 25% 28 203026 2009 38%
c i 14.69 632 81 1 129  739  568 25% 28 203026 2008 38%
c i 14.71 632 81 1 129  741  569 25% 28 203026 2007 38%
c i 14.72 632 82 1 129  747  574 25% 28 203026 2006 38%
c i 15.31 632 83 1 145  820  637 25% 30 203026 2005 38%
c i 15.31 632 83 1 145  821  637 25% 30 203026 2004 38%
c i 15.31 632 83 1 146  822  637 25% 30 203026 2003 38%
c 
c  seconds   reductions  redundant   irredundant
c          MB    restarts       trail       variables
c           level   conflicts       glue         remaining
c 
c i 15.52 633 84 1 152  844  656 25% 30 203026 2002 38%
c i 15.73 633 84 1 159  873  682 25% 31 203026 2001 38%
c i 16.21 633 84 1 174  940  741 25% 31 203026 1997 38%
c i 16.33 633 85 1 175  961  757 25% 31 203026 1996 38%
c i 16.33 633 85 1 175  964  758 25% 31 203026 1994 37%
c i 16.33 633 85 1 175  966  759 25% 31 203026 1993 37%
c i 16.33 633 85 1 175  970  760 25% 31 203026 1990 37%
c i 16.43 633 86 1 175  981  767 25% 31 203026 1988 37%
c i 16.43 633 86 1 175  985  770 25% 31 203026 1987 37%
c i 16.54 633 86 1 177  994  777 25% 31 203026 1986 37%
c } 16.60 633 86 1 179 1001  784 25% 31 203026 1986 37%
c [ 16.60 633  0 1 179 1001  784  0% 0 203026 1986 37%
c O 16.61 633  0 1 179 1002  784 15% 0 203026 1986 37%
c i 16.61 633  0 1 179 1002  784 15% 0 203026 1984 37%
c i 16.61 633  0 1 179 1003  784 14% 0 203026 1972 37%
c i 16.61 633  0 1 179 1004  784 13% 0 203026 1962 37%
c i 16.84 634 11 1 179 1053  817 24% 7 203026 1961 37%
c i 16.87 634 11 1 179 1076  831 26% 8 203026 1960 37%
c - 17.20 714 12 2 179 1086  732 27% 9 202211 1960 37%
c i 17.41 714 16 2 179 1293  849 30% 13 202211 1959 37%
c 
c  seconds   reductions  redundant   irredundant
c          MB    restarts       trail       variables
c           level   conflicts       glue         remaining
c 
c i 17.50 714 15 2 179 1400  882 30% 13 202211 1958 37%
c i 17.55 714 16 2 179 1528  964 30% 14 202211 1957 37%
c i 17.62 714 16 2 179 1723 1048 30% 14 202211 1956 37%
c i 17.66 714 17 2 179 1872 1122 30% 14 202211 1955 37%
c i 17.76 714 17 2 180 2229 1302 30% 15 202211 1954 37%
c - 17.93 713 17 3 180 2262  981 30% 15 202193 1954 37%
c i 18.17 713 17 3 180 2480 1086 55% 15 202193 1953 37%
c i 18.23 713 16 3 180 2656 1141 55% 14 202193 1952 37%
c ] 18.35 713 20 3 180 3001 1377 55% 17 202193 1952 37%
c { 18.35 713 86 3 180 3001 1377 69% 31 202193 1952 37%
c F 18.40 713 86 3 181 3003 1379 69% 31 202193 1952 37%
c i 18.43 713 86 3 181 3013 1388 69% 31 202193 1951 37%
c i 18.50 713 83 3 181 3053 1420 68% 30 202193 1950 37%
c i 18.53 713 80 3 181 3112 1466 67% 30 202193 1949 37%
c i 18.58 713 75 3 181 3199 1511 66% 28 202193 1948 37%
c i 18.91 713 60 3 189 3781 1939 61% 26 202193 1947 37%
c - 19.21 712 61 4 199 3829 1535 60% 26 202172 1947 37%
c i 19.23 712 61 4 200 3836 1540 60% 26 202172 1946 37%
c i 19.36 712 60 4 209 3891 1587 60% 26 202172 1945 37%
c i 19.40 712 59 4 209 3988 1659 60% 26 202172 1944 37%
c 
c  seconds   reductions  redundant   irredundant
c          MB    restarts       trail       variables
c           level   conflicts       glue         remaining
c 
c i 19.57 712 59 4 222 4081 1742 59% 27 202172 1943 37%
c i 19.60 712 58 4 229 4108 1765 59% 27 202172 1928 36%
c i 19.75 712 58 4 240 4200 1842 59% 27 202172 1927 36%
c i 19.76 712 58 4 240 4208 1849 58% 27 202172 1926 36%
c i 20.36 712 56 4 274 4543 2096 57% 27 202172 1925 36%
c i 20.97 712 57 4 301 4810 2335 56% 27 202172 1924 36%
c d 21.37 712 55 4 301 5001 2455 56% 27 180126 1912 36%
c 3 21.39 712 55 4 301 5001 3325 56% 27 180121 1912 36%
c 2 21.43 712 55 4 301 5001 3479 56% 27 180121 1900 36%
c p 23.41 712 55 4 301 5001 6247 56% 27 180121 1830 34%
c d 23.66 712 55 4 301 5001 6137 56% 27 179678 1823 34%
c - 24.16 694 47 5 301 5788 2325 54% 24 179678 1823 34%
c # 24.25 694 46 5 301 6006 2453 53% 23 179678 1823 34%
c } 25.35 694 42 5 324 7002 3211 53% 22 179678 1823 34%
c [ 25.35 694 20 5 324 7002 3211 55% 17 179678 1823 34%
c - 26.12 635 19 6 325 8046 2888 54% 16 179678 1823 34%
c I 27.58 635 20 6 326 10011 4046 52% 17 179678 1823 34%
c - 28.96 635 23 7 327 10681 3181 52% 19 179678 1823 34%
c - 32.40 635 25 8 329 13691 3733 51% 20 179678 1823 34%
c 2 33.44 635 24 8 329 15001 5559 51% 20 179675 1823 34%
c 
c  seconds   reductions   redundant   irredundant
c          MB    restarts        trail       variables
c           level    conflicts       glue         remaining
c 
c p 34.47 635 24 8 329 15001 8261 51% 20 179675 1823 34%
c ] 34.52 635 24 8 329 15002 8262 51% 20 179675 1823 34%
c { 34.52 635 42 8 329 15002 8262 53% 22 179675 1823 34%
c B 34.59 635 42 8 329 15013 8271 53% 22 179675 1823 34%
c - 36.63 635 38 9 385 17080 4396 52% 21 179675 1823 34%
c s 36.84 635 36 9 385 17531 4594 52% 21 177861 1823 34%
c v 38.60 635 36 9 385 17531 4594 52% 21 177833 1823 34%
c t 38.67 635 36 9 385 17531 4567 52% 21 177815 1823 34%
c e 38.99 635 36 9 385 17531 4363 52% 21 175713 747 14%
c s 39.07 635 36 9 385 17531 4360 52% 21 175103 747 14%
c - 41.87 638 32 10 471 20843 5199 75% 20 175103 747 14%
c W 42.02 638 32 10 471 21014 5326 75% 20 175103 747 14%
c - 44.11 638 28 11 504 24945 5932 74% 18 175103 747 14%
c F 45.09 638 26 11 542 28016 8322 75% 17 175103 747 14%
c - 46.22 638 26 12 579 29422 6286 74% 17 175103 747 14%
c d 46.61 638 25 12 579 30003 6707 74% 17 175101 746 14%
c 2 46.64 638 25 12 579 30003 7270 74% 17 175100 746 14%
c p 47.96 638 25 12 579 30003 8619 74% 17 175100 745 14%
c } 49.71 638 25 12 687 31002 9300 74% 17 175100 745 14%
c [ 49.71 638 24 12 687 31002 9300 132% 20 175100 745 14%
c 
c  seconds   reductions    redundant    irredundant
c          MB     restarts        trail        variables
c           level     conflicts        glue        remaining
c 
c - 51.51 638 22 13 688 34272 6017 116% 18 175097 745 14%
c B 52.53 638 22 13 690 36017 7004 110% 18 175097 745 14%
c - 54.08 638 28 14 692 39495 6922 102% 23 175097 745 14%
c W 56.55 638 34 14 694 45018 11385 95% 28 175097 745 14%
c - 56.66 638 34 15 694 45091 7957 94% 28 175097 745 14%
c s 58.81 638 34 15 695 49025 10834 91% 28 174496 745 14%
c v 60.51 638 34 15 695 49025 10834 91% 28 174449 745 14%
c s 61.04 638 34 15 695 49025 10834 91% 28 173828 745 14%
c p 62.85 638 34 15 695 50004 13834 91% 28 173828 745 14%
c - 63.39 638 33 16 695 51061 7848 90% 27 173828 745 14%
c O 64.40 638 32 16 696 55020 10746 88% 26 173828 745 14%
c - 64.96 638 31 17 698 57385 7805 87% 26 173828 745 14%
c ] 66.19 638 30 17 702 63007 10947 84% 25 173828 745 14%
c { 66.19 638 25 17 702 63007 10947 74% 17 173828 745 14%
c - 66.79 638 25 18 712 64082 7509 74% 17 173828 745 14%
c B 67.45 638 24 18 746 66022 8587 74% 17 173828 745 14%
c i 69.92 638 25 18 943 66860 9276 74% 17 173828 738 14%
c - 71.21 638 24 19 971 71150 7824 73% 17 173676 738 14%
c p 75.07 638 23 19 1079 75009 13271 73% 17 173676 734 14%
c d 75.19 638 23 19 1079 75009 13074 73% 17 173663 733 14%
c 
c  seconds   reductions      redundant   irredundant
c          MB     restarts          trail       variables
c           level      conflicts        glue        remaining
c 
c W 77.90 638 23 19 1287 78023 15090 73% 17 173663 733 14%
c - 78.01 638 23 20 1289 78588 9142 73% 17 173663 733 14%
c - 79.44 638 21 21 1342 86399 8993 73% 16 173663 733 14%
c # 81.61 638 21 21 1527 91026 11978 73% 16 173663 733 14%
c - 83.21 638 21 22 1673 94581 9976 73% 16 173663 733 14%
c } 83.24 638 21 22 1673 94742 10036 73% 16 173663 733 14%
c 1 83.24 638 21 22 1673 94742 10036 73% 16 173663 733 14%
c 
c --- [ writing output ] -----------------------------------------------------
c 
c writing simplified CNF to DIMACS file 'simp/23.cubes541.adj.simp1'
c * 83.24 638 21 22 1673 94742 10036 73% 16 173663 733 14%
c opening file to write 'simp/23.cubes541.adj.simp1'
c writing 'p cnf 5320 173663' header
c closing file 'simp/23.cubes541.adj.simp1'
c after writing 64716518 bytes 61.7 MB
c wrote 173663 clauses in 0.41 seconds process time
c 
c --- [ writing extension ] --------------------------------------------------
c 
c writing extension stack to 'simp/23.cubes541.adj.ext1'
c opening file to write 'simp/23.cubes541.adj.ext1'
c closing file 'simp/23.cubes541.adj.ext1'
c after writing 72089 bytes 0.1 MB
c wrote 3223 witnesses in 0.00 seconds process time
c 
c --- [ result ] -------------------------------------------------------------
c 
s SATISFIABLE
c 
c --- [ run-time profiling ] -------------------------------------------------
c 
c process time taken by individual solving procedures
c (percentage relative to process time for solving)
c 
c        63.05   82.68% search
c        39.60   51.93% unstable
c        22.16   29.05% stable
c        13.21   17.32% simplify
c         6.99    9.16% parse
c         6.98    9.16% probe
c         3.56    4.67% vivify
c         1.31    1.72% elim
c         0.89    1.17% walk
c         0.40    0.52% lucky
c         0.35    0.45% subsume
c         0.11    0.15% ternary
c   =================================
c        76.26   91.16% solve
c 
c last line shows process time for solving
c (percentage relative to total process time)
c 
c --- [ statistics ] ---------------------------------------------------------
c 
c chronological:             15489        16.35 %  of conflicts
c conflicts:                 94742      1242.40    per second
c decisions:                171173      2244.69    per second
c eliminated:                 1076        20.23 %  of all variables
c fixed:                       653        12.27 %  of all variables
c learned:                   92834        97.99 %  per conflict
c learned_lits:           15264486       100.00 %  learned literals
c minimized:                     0         0.00 %  learned literals
c shrunken:                9943369        65.14 %  learned literals
c minishrunken:            1163313         7.62 %  learned literals
c propagations:            6238417         0.08 M  per second
c reduced:                   52357        55.26 %  per conflict
c rephased:                     13      7287.85    interval
c restarts:                   1673        56.63    interval
c stabilizing:                   3        44.34 %  of conflicts
c substituted:                  21         0.39 %  of all variables
c subsumed:                  33957         1.58 %  of all clauses
c strengthened:              11010         0.51 %  of all clauses
c ternary:                    4069         0.88 %  of resolved
c vivified:                     98         0.00 %  of all clauses
c walked:                        3     31580.67    interval
c weakened:                   2570         3.03    average size
c 
c seconds are measured in process time for solving
c 
c --- [ resources ] ----------------------------------------------------------
c 
c total process time since initialization:        83.65    seconds
c total real time since initialization:           84.00    seconds
c maximum resident set size of process:          793.73    MB
c 
c --- [ shutting down ] ------------------------------------------------------
c 
c exit 10
WARNING! DIMACS header mismatch: wrong number of variables.
============================[ Problem Statistics ]=============================
|                                                                             |
|  Number of variables:          2720                                         |
|  Number of clauses:          173671                                         |
|  Parse time:                   0.90 s                                       |
|  Simplification time:          0.02 s                                       |
|                                                                             |
============================[ Search Statistics ]====================================================
| Conflicts |          ORIGINAL         |          LEARNT          | Num Sols |      SUBGRAPHS      |
|           |    Vars  Clauses Literals |    Limit  Clauses Lit/Cl |          | Canonical Noncanon. |
=====================================================================================================
|       156 |    2639   173727 14453700 |     2000      156     45 |        0 |        38        56 |
|       711 |    2639   174132 14460008 |     2000      711     21 |        0 |       129       461 |
|      1010 |    2639   174206 14460995 |     2000     1010     34 |        0 |       160       535 |
|      1374 |    2639   174233 14461494 |     2000     1374     46 |        0 |       169       562 |
|      1916 |    2639   174269 14462180 |     2000     1916     53 |        0 |       189       598 |
|      2689 |    2639   174283 14462548 |     3602     1691     55 |        0 |       204       612 |
|      4380 |    2639   174835 14471631 |     3602     3382     57 |        0 |       385      1164 |
|      8083 |    2639   176830 14501680 |     6301     2784     20 |        0 |      1018      3159 |
|     12380 |    2639   178565 14525344 |     7555     3935     17 |        0 |      1419      4894 |
|     18771 |    2639   181112 14564838 |     8779     6550     23 |        0 |      1993      7441 |
|     26292 |    2639   182867 14593968 |     9991     9683     38 |        0 |      2280      9196 |
|     42145 |    2639   190071 14695938 |    13602     8747     31 |        0 |      3358     16400 |
|     66996 |    2639   201948 14844382 |    17217    11413     23 |        0 |      4500     28277 |
|    102185 |    2593   217676 15027766 |    20818    19001     32 |        0 |      5660     44005 |
=====================================================================================================
Number of solutions   : 0
Canonical subgraphs   : 5670           (32 /sec)
          order  3    : 1              (250000 /sec)
          order  4    : 1              (500000 /sec)
          order  5    : 1              (250000 /sec)
          order  6    : 1              (55556 /sec)
          order  7    : 2              (10363 /sec)
          order  8    : 4              (2120 /sec)
          order  9    : 9              (440 /sec)
          order 10    : 33             (122 /sec)
          order 11    : 168            (41 /sec)
          order 12    : 1155           (28 /sec)
          order 13    : 2629           (31 /sec)
          order 14    : 918            (44 /sec)
          order 15    : 365            (33 /sec)
          order 16    : 242            (28 /sec)
          order 17    : 109            (22 /sec)
          order 18    : 31             (24 /sec)
          order 19    : 1              (36 /sec)
          order 20    : 0              (-nan /sec)
          order 21    : 0              (-nan /sec)
Noncanonical subgraphs: 44197          (268 /sec)
          order  3    : 0              (-nan /sec)
          order  4    : 0              (-nan /sec)
          order  5    : 0              (-nan /sec)
          order  6    : 0              (-nan /sec)
          order  7    : 0              (-nan /sec)
          order  8    : 0              (-nan /sec)
          order  9    : 0              (-nan /sec)
          order 10    : 0              (-nan /sec)
          order 11    : 0              (-nan /sec)
          order 12    : 0              (-nan /sec)
          order 13    : 9714           (1807 /sec)
          order 14    : 32331          (216 /sec)
          order 15    : 1156           (335 /sec)
          order 16    : 681            (245 /sec)
          order 17    : 315            (86 /sec)
          order 18    : 0              (-nan /sec)
          order 19    : 0              (-nan /sec)
          order 20    : 0              (-nan /sec)
Canonicity checking   : 176.361 s
Noncanonicity checking: 164.634 s
Total canonicity time : 340.995 s
database reductions   : 15
restarts              : 258
conflicts             : 102865         (275 /sec)
decisions             : 186937         (0.00 % random) (500 /sec)
propagations          : 4729803        (12655 /sec)
conflict literals     : 5294003        (51.46 % deleted)
actual reward         : 0.198491
Memory used           : 181.00 MB
CPU time              : 373.75 s

UNSATISFIABLE
